c File: flat200_3_0.col
c
c SOURCE: Joseph Culberson (joe@cs.ualberta.ca)
c DESCRIPTION: Quasi-random coloring problem
c              generated with flatness = 0
c                             probability = 0.036
c                             known coloring = 3
c                             random seed = 1002
c              Creation Date:  Wed Feb 24 10:39:31 1999
c Maximum degree = 8 Minimum degree = 0
c COLOR VERIFICATION: Using the permuted order
c under simple greedy yields the specified
c coloring number
c Color = 3 specified partitions = 3
c p edge 200 479
c cnf created by edge2cnf
p cnf 600 2237
-1 -2 0
-1 -3 0
-2 -3 0
1 2 3 0
-4 -5 0
-4 -6 0
-5 -6 0
4 5 6 0
-7 -8 0
-7 -9 0
-8 -9 0
7 8 9 0
-10 -11 0
-10 -12 0
-11 -12 0
10 11 12 0
-13 -14 0
-13 -15 0
-14 -15 0
13 14 15 0
-16 -17 0
-16 -18 0
-17 -18 0
16 17 18 0
-19 -20 0
-19 -21 0
-20 -21 0
19 20 21 0
-22 -23 0
-22 -24 0
-23 -24 0
22 23 24 0
-25 -26 0
-25 -27 0
-26 -27 0
25 26 27 0
-28 -29 0
-28 -30 0
-29 -30 0
28 29 30 0
-31 -32 0
-31 -33 0
-32 -33 0
31 32 33 0
-34 -35 0
-34 -36 0
-35 -36 0
34 35 36 0
-37 -38 0
-37 -39 0
-38 -39 0
37 38 39 0
-40 -41 0
-40 -42 0
-41 -42 0
40 41 42 0
-43 -44 0
-43 -45 0
-44 -45 0
43 44 45 0
-46 -47 0
-46 -48 0
-47 -48 0
46 47 48 0
-49 -50 0
-49 -51 0
-50 -51 0
49 50 51 0
-52 -53 0
-52 -54 0
-53 -54 0
52 53 54 0
-55 -56 0
-55 -57 0
-56 -57 0
55 56 57 0
-58 -59 0
-58 -60 0
-59 -60 0
58 59 60 0
-61 -62 0
-61 -63 0
-62 -63 0
61 62 63 0
-64 -65 0
-64 -66 0
-65 -66 0
64 65 66 0
-67 -68 0
-67 -69 0
-68 -69 0
67 68 69 0
-70 -71 0
-70 -72 0
-71 -72 0
70 71 72 0
-73 -74 0
-73 -75 0
-74 -75 0
73 74 75 0
-76 -77 0
-76 -78 0
-77 -78 0
76 77 78 0
-79 -80 0
-79 -81 0
-80 -81 0
79 80 81 0
-82 -83 0
-82 -84 0
-83 -84 0
82 83 84 0
-85 -86 0
-85 -87 0
-86 -87 0
85 86 87 0
-88 -89 0
-88 -90 0
-89 -90 0
88 89 90 0
-91 -92 0
-91 -93 0
-92 -93 0
91 92 93 0
-94 -95 0
-94 -96 0
-95 -96 0
94 95 96 0
-97 -98 0
-97 -99 0
-98 -99 0
97 98 99 0
-100 -101 0
-100 -102 0
-101 -102 0
100 101 102 0
-103 -104 0
-103 -105 0
-104 -105 0
103 104 105 0
-106 -107 0
-106 -108 0
-107 -108 0
106 107 108 0
-109 -110 0
-109 -111 0
-110 -111 0
109 110 111 0
-112 -113 0
-112 -114 0
-113 -114 0
112 113 114 0
-115 -116 0
-115 -117 0
-116 -117 0
115 116 117 0
-118 -119 0
-118 -120 0
-119 -120 0
118 119 120 0
-121 -122 0
-121 -123 0
-122 -123 0
121 122 123 0
-124 -125 0
-124 -126 0
-125 -126 0
124 125 126 0
-127 -128 0
-127 -129 0
-128 -129 0
127 128 129 0
-130 -131 0
-130 -132 0
-131 -132 0
130 131 132 0
-133 -134 0
-133 -135 0
-134 -135 0
133 134 135 0
-136 -137 0
-136 -138 0
-137 -138 0
136 137 138 0
-139 -140 0
-139 -141 0
-140 -141 0
139 140 141 0
-142 -143 0
-142 -144 0
-143 -144 0
142 143 144 0
-145 -146 0
-145 -147 0
-146 -147 0
145 146 147 0
-148 -149 0
-148 -150 0
-149 -150 0
148 149 150 0
-151 -152 0
-151 -153 0
-152 -153 0
151 152 153 0
-154 -155 0
-154 -156 0
-155 -156 0
154 155 156 0
-157 -158 0
-157 -159 0
-158 -159 0
157 158 159 0
-160 -161 0
-160 -162 0
-161 -162 0
160 161 162 0
-163 -164 0
-163 -165 0
-164 -165 0
163 164 165 0
-166 -167 0
-166 -168 0
-167 -168 0
166 167 168 0
-169 -170 0
-169 -171 0
-170 -171 0
169 170 171 0
-172 -173 0
-172 -174 0
-173 -174 0
172 173 174 0
-175 -176 0
-175 -177 0
-176 -177 0
175 176 177 0
-178 -179 0
-178 -180 0
-179 -180 0
178 179 180 0
-181 -182 0
-181 -183 0
-182 -183 0
181 182 183 0
-184 -185 0
-184 -186 0
-185 -186 0
184 185 186 0
-187 -188 0
-187 -189 0
-188 -189 0
187 188 189 0
-190 -191 0
-190 -192 0
-191 -192 0
190 191 192 0
-193 -194 0
-193 -195 0
-194 -195 0
193 194 195 0
-196 -197 0
-196 -198 0
-197 -198 0
196 197 198 0
-199 -200 0
-199 -201 0
-200 -201 0
199 200 201 0
-202 -203 0
-202 -204 0
-203 -204 0
202 203 204 0
-205 -206 0
-205 -207 0
-206 -207 0
205 206 207 0
-208 -209 0
-208 -210 0
-209 -210 0
208 209 210 0
-211 -212 0
-211 -213 0
-212 -213 0
211 212 213 0
-214 -215 0
-214 -216 0
-215 -216 0
214 215 216 0
-217 -218 0
-217 -219 0
-218 -219 0
217 218 219 0
-220 -221 0
-220 -222 0
-221 -222 0
220 221 222 0
-223 -224 0
-223 -225 0
-224 -225 0
223 224 225 0
-226 -227 0
-226 -228 0
-227 -228 0
226 227 228 0
-229 -230 0
-229 -231 0
-230 -231 0
229 230 231 0
-232 -233 0
-232 -234 0
-233 -234 0
232 233 234 0
-235 -236 0
-235 -237 0
-236 -237 0
235 236 237 0
-238 -239 0
-238 -240 0
-239 -240 0
238 239 240 0
-241 -242 0
-241 -243 0
-242 -243 0
241 242 243 0
-244 -245 0
-244 -246 0
-245 -246 0
244 245 246 0
-247 -248 0
-247 -249 0
-248 -249 0
247 248 249 0
-250 -251 0
-250 -252 0
-251 -252 0
250 251 252 0
-253 -254 0
-253 -255 0
-254 -255 0
253 254 255 0
-256 -257 0
-256 -258 0
-257 -258 0
256 257 258 0
-259 -260 0
-259 -261 0
-260 -261 0
259 260 261 0
-262 -263 0
-262 -264 0
-263 -264 0
262 263 264 0
-265 -266 0
-265 -267 0
-266 -267 0
265 266 267 0
-268 -269 0
-268 -270 0
-269 -270 0
268 269 270 0
-271 -272 0
-271 -273 0
-272 -273 0
271 272 273 0
-274 -275 0
-274 -276 0
-275 -276 0
274 275 276 0
-277 -278 0
-277 -279 0
-278 -279 0
277 278 279 0
-280 -281 0
-280 -282 0
-281 -282 0
280 281 282 0
-283 -284 0
-283 -285 0
-284 -285 0
283 284 285 0
-286 -287 0
-286 -288 0
-287 -288 0
286 287 288 0
-289 -290 0
-289 -291 0
-290 -291 0
289 290 291 0
-292 -293 0
-292 -294 0
-293 -294 0
292 293 294 0
-295 -296 0
-295 -297 0
-296 -297 0
295 296 297 0
-298 -299 0
-298 -300 0
-299 -300 0
298 299 300 0
-301 -302 0
-301 -303 0
-302 -303 0
301 302 303 0
-304 -305 0
-304 -306 0
-305 -306 0
304 305 306 0
-307 -308 0
-307 -309 0
-308 -309 0
307 308 309 0
-310 -311 0
-310 -312 0
-311 -312 0
310 311 312 0
-313 -314 0
-313 -315 0
-314 -315 0
313 314 315 0
-316 -317 0
-316 -318 0
-317 -318 0
316 317 318 0
-319 -320 0
-319 -321 0
-320 -321 0
319 320 321 0
-322 -323 0
-322 -324 0
-323 -324 0
322 323 324 0
-325 -326 0
-325 -327 0
-326 -327 0
325 326 327 0
-328 -329 0
-328 -330 0
-329 -330 0
328 329 330 0
-331 -332 0
-331 -333 0
-332 -333 0
331 332 333 0
-334 -335 0
-334 -336 0
-335 -336 0
334 335 336 0
-337 -338 0
-337 -339 0
-338 -339 0
337 338 339 0
-340 -341 0
-340 -342 0
-341 -342 0
340 341 342 0
-343 -344 0
-343 -345 0
-344 -345 0
343 344 345 0
-346 -347 0
-346 -348 0
-347 -348 0
346 347 348 0
-349 -350 0
-349 -351 0
-350 -351 0
349 350 351 0
-352 -353 0
-352 -354 0
-353 -354 0
352 353 354 0
-355 -356 0
-355 -357 0
-356 -357 0
355 356 357 0
-358 -359 0
-358 -360 0
-359 -360 0
358 359 360 0
-361 -362 0
-361 -363 0
-362 -363 0
361 362 363 0
-364 -365 0
-364 -366 0
-365 -366 0
364 365 366 0
-367 -368 0
-367 -369 0
-368 -369 0
367 368 369 0
-370 -371 0
-370 -372 0
-371 -372 0
370 371 372 0
-373 -374 0
-373 -375 0
-374 -375 0
373 374 375 0
-376 -377 0
-376 -378 0
-377 -378 0
376 377 378 0
-379 -380 0
-379 -381 0
-380 -381 0
379 380 381 0
-382 -383 0
-382 -384 0
-383 -384 0
382 383 384 0
-385 -386 0
-385 -387 0
-386 -387 0
385 386 387 0
-388 -389 0
-388 -390 0
-389 -390 0
388 389 390 0
-391 -392 0
-391 -393 0
-392 -393 0
391 392 393 0
-394 -395 0
-394 -396 0
-395 -396 0
394 395 396 0
-397 -398 0
-397 -399 0
-398 -399 0
397 398 399 0
-400 -401 0
-400 -402 0
-401 -402 0
400 401 402 0
-403 -404 0
-403 -405 0
-404 -405 0
403 404 405 0
-406 -407 0
-406 -408 0
-407 -408 0
406 407 408 0
-409 -410 0
-409 -411 0
-410 -411 0
409 410 411 0
-412 -413 0
-412 -414 0
-413 -414 0
412 413 414 0
-415 -416 0
-415 -417 0
-416 -417 0
415 416 417 0
-418 -419 0
-418 -420 0
-419 -420 0
418 419 420 0
-421 -422 0
-421 -423 0
-422 -423 0
421 422 423 0
-424 -425 0
-424 -426 0
-425 -426 0
424 425 426 0
-427 -428 0
-427 -429 0
-428 -429 0
427 428 429 0
-430 -431 0
-430 -432 0
-431 -432 0
430 431 432 0
-433 -434 0
-433 -435 0
-434 -435 0
433 434 435 0
-436 -437 0
-436 -438 0
-437 -438 0
436 437 438 0
-439 -440 0
-439 -441 0
-440 -441 0
439 440 441 0
-442 -443 0
-442 -444 0
-443 -444 0
442 443 444 0
-445 -446 0
-445 -447 0
-446 -447 0
445 446 447 0
-448 -449 0
-448 -450 0
-449 -450 0
448 449 450 0
-451 -452 0
-451 -453 0
-452 -453 0
451 452 453 0
-454 -455 0
-454 -456 0
-455 -456 0
454 455 456 0
-457 -458 0
-457 -459 0
-458 -459 0
457 458 459 0
-460 -461 0
-460 -462 0
-461 -462 0
460 461 462 0
-463 -464 0
-463 -465 0
-464 -465 0
463 464 465 0
-466 -467 0
-466 -468 0
-467 -468 0
466 467 468 0
-469 -470 0
-469 -471 0
-470 -471 0
469 470 471 0
-472 -473 0
-472 -474 0
-473 -474 0
472 473 474 0
-475 -476 0
-475 -477 0
-476 -477 0
475 476 477 0
-478 -479 0
-478 -480 0
-479 -480 0
478 479 480 0
-481 -482 0
-481 -483 0
-482 -483 0
481 482 483 0
-484 -485 0
-484 -486 0
-485 -486 0
484 485 486 0
-487 -488 0
-487 -489 0
-488 -489 0
487 488 489 0
-490 -491 0
-490 -492 0
-491 -492 0
490 491 492 0
-493 -494 0
-493 -495 0
-494 -495 0
493 494 495 0
-496 -497 0
-496 -498 0
-497 -498 0
496 497 498 0
-499 -500 0
-499 -501 0
-500 -501 0
499 500 501 0
-502 -503 0
-502 -504 0
-503 -504 0
502 503 504 0
-505 -506 0
-505 -507 0
-506 -507 0
505 506 507 0
-508 -509 0
-508 -510 0
-509 -510 0
508 509 510 0
-511 -512 0
-511 -513 0
-512 -513 0
511 512 513 0
-514 -515 0
-514 -516 0
-515 -516 0
514 515 516 0
-517 -518 0
-517 -519 0
-518 -519 0
517 518 519 0
-520 -521 0
-520 -522 0
-521 -522 0
520 521 522 0
-523 -524 0
-523 -525 0
-524 -525 0
523 524 525 0
-526 -527 0
-526 -528 0
-527 -528 0
526 527 528 0
-529 -530 0
-529 -531 0
-530 -531 0
529 530 531 0
-532 -533 0
-532 -534 0
-533 -534 0
532 533 534 0
-535 -536 0
-535 -537 0
-536 -537 0
535 536 537 0
-538 -539 0
-538 -540 0
-539 -540 0
538 539 540 0
-541 -542 0
-541 -543 0
-542 -543 0
541 542 543 0
-544 -545 0
-544 -546 0
-545 -546 0
544 545 546 0
-547 -548 0
-547 -549 0
-548 -549 0
547 548 549 0
-550 -551 0
-550 -552 0
-551 -552 0
550 551 552 0
-553 -554 0
-553 -555 0
-554 -555 0
553 554 555 0
-556 -557 0
-556 -558 0
-557 -558 0
556 557 558 0
-559 -560 0
-559 -561 0
-560 -561 0
559 560 561 0
-562 -563 0
-562 -564 0
-563 -564 0
562 563 564 0
-565 -566 0
-565 -567 0
-566 -567 0
565 566 567 0
-568 -569 0
-568 -570 0
-569 -570 0
568 569 570 0
-571 -572 0
-571 -573 0
-572 -573 0
571 572 573 0
-574 -575 0
-574 -576 0
-575 -576 0
574 575 576 0
-577 -578 0
-577 -579 0
-578 -579 0
577 578 579 0
-580 -581 0
-580 -582 0
-581 -582 0
580 581 582 0
-583 -584 0
-583 -585 0
-584 -585 0
583 584 585 0
-586 -587 0
-586 -588 0
-587 -588 0
586 587 588 0
-589 -590 0
-589 -591 0
-590 -591 0
589 590 591 0
-592 -593 0
-592 -594 0
-593 -594 0
592 593 594 0
-595 -596 0
-595 -597 0
-596 -597 0
595 596 597 0
-598 -599 0
-598 -600 0
-599 -600 0
598 599 600 0
-58 -1 0
-59 -2 0
-60 -3 0
-196 -1 0
-197 -2 0
-198 -3 0
-385 -1 0
-386 -2 0
-387 -3 0
-478 -1 0
-479 -2 0
-480 -3 0
-541 -1 0
-542 -2 0
-543 -3 0
-544 -1 0
-545 -2 0
-546 -3 0
-40 -4 0
-41 -5 0
-42 -6 0
-121 -4 0
-122 -5 0
-123 -6 0
-277 -4 0
-278 -5 0
-279 -6 0
-433 -4 0
-434 -5 0
-435 -6 0
-526 -4 0
-527 -5 0
-528 -6 0
-277 -7 0
-278 -8 0
-279 -9 0
-283 -7 0
-284 -8 0
-285 -9 0
-382 -7 0
-383 -8 0
-384 -9 0
-541 -7 0
-542 -8 0
-543 -9 0
-553 -7 0
-554 -8 0
-555 -9 0
-562 -7 0
-563 -8 0
-564 -9 0
-64 -10 0
-65 -11 0
-66 -12 0
-73 -10 0
-74 -11 0
-75 -12 0
-361 -10 0
-362 -11 0
-363 -12 0
-577 -10 0
-578 -11 0
-579 -12 0
-55 -16 0
-56 -17 0
-57 -18 0
-310 -16 0
-311 -17 0
-312 -18 0
-379 -16 0
-380 -17 0
-381 -18 0
-463 -16 0
-464 -17 0
-465 -18 0
-112 -19 0
-113 -20 0
-114 -21 0
-139 -19 0
-140 -20 0
-141 -21 0
-250 -19 0
-251 -20 0
-252 -21 0
-316 -19 0
-317 -20 0
-318 -21 0
-421 -19 0
-422 -20 0
-423 -21 0
-544 -19 0
-545 -20 0
-546 -21 0
-574 -19 0
-575 -20 0
-576 -21 0
-58 -22 0
-59 -23 0
-60 -24 0
-139 -22 0
-140 -23 0
-141 -24 0
-187 -22 0
-188 -23 0
-189 -24 0
-328 -22 0
-329 -23 0
-330 -24 0
-364 -22 0
-365 -23 0
-366 -24 0
-376 -22 0
-377 -23 0
-378 -24 0
-85 -25 0
-86 -26 0
-87 -27 0
-88 -25 0
-89 -26 0
-90 -27 0
-232 -25 0
-233 -26 0
-234 -27 0
-469 -25 0
-470 -26 0
-471 -27 0
-73 -28 0
-74 -29 0
-75 -30 0
-97 -28 0
-98 -29 0
-99 -30 0
-175 -28 0
-176 -29 0
-177 -30 0
-220 -28 0
-221 -29 0
-222 -30 0
-466 -28 0
-467 -29 0
-468 -30 0
-571 -28 0
-572 -29 0
-573 -30 0
-127 -31 0
-128 -32 0
-129 -33 0
-241 -31 0
-242 -32 0
-243 -33 0
-457 -31 0
-458 -32 0
-459 -33 0
-115 -34 0
-116 -35 0
-117 -36 0
-196 -34 0
-197 -35 0
-198 -36 0
-247 -34 0
-248 -35 0
-249 -36 0
-265 -34 0
-266 -35 0
-267 -36 0
-331 -34 0
-332 -35 0
-333 -36 0
-355 -34 0
-356 -35 0
-357 -36 0
-388 -34 0
-389 -35 0
-390 -36 0
-457 -34 0
-458 -35 0
-459 -36 0
-76 -37 0
-77 -38 0
-78 -39 0
-79 -37 0
-80 -38 0
-81 -39 0
-364 -37 0
-365 -38 0
-366 -39 0
-367 -37 0
-368 -38 0
-369 -39 0
-550 -37 0
-551 -38 0
-552 -39 0
-580 -37 0
-581 -38 0
-582 -39 0
-178 -40 0
-179 -41 0
-180 -42 0
-229 -40 0
-230 -41 0
-231 -42 0
-277 -40 0
-278 -41 0
-279 -42 0
-445 -40 0
-446 -41 0
-447 -42 0
-145 -43 0
-146 -44 0
-147 -45 0
-154 -43 0
-155 -44 0
-156 -45 0
-262 -43 0
-263 -44 0
-264 -45 0
-496 -43 0
-497 -44 0
-498 -45 0
-136 -46 0
-137 -47 0
-138 -48 0
-166 -46 0
-167 -47 0
-168 -48 0
-382 -46 0
-383 -47 0
-384 -48 0
-532 -46 0
-533 -47 0
-534 -48 0
-253 -49 0
-254 -50 0
-255 -51 0
-265 -49 0
-266 -50 0
-267 -51 0
-394 -49 0
-395 -50 0
-396 -51 0
-532 -49 0
-533 -50 0
-534 -51 0
-211 -52 0
-212 -53 0
-213 -54 0
-307 -52 0
-308 -53 0
-309 -54 0
-340 -52 0
-341 -53 0
-342 -54 0
-418 -52 0
-419 -53 0
-420 -54 0
-490 -52 0
-491 -53 0
-492 -54 0
-94 -55 0
-95 -56 0
-96 -57 0
-301 -55 0
-302 -56 0
-303 -57 0
-538 -55 0
-539 -56 0
-540 -57 0
-127 -58 0
-128 -59 0
-129 -60 0
-160 -58 0
-161 -59 0
-162 -60 0
-382 -58 0
-383 -59 0
-384 -60 0
-481 -58 0
-482 -59 0
-483 -60 0
-79 -61 0
-80 -62 0
-81 -63 0
-160 -61 0
-161 -62 0
-162 -63 0
-274 -61 0
-275 -62 0
-276 -63 0
-418 -61 0
-419 -62 0
-420 -63 0
-427 -61 0
-428 -62 0
-429 -63 0
-205 -64 0
-206 -65 0
-207 -66 0
-253 -64 0
-254 -65 0
-255 -66 0
-271 -64 0
-272 -65 0
-273 -66 0
-307 -64 0
-308 -65 0
-309 -66 0
-346 -64 0
-347 -65 0
-348 -66 0
-82 -67 0
-83 -68 0
-84 -69 0
-121 -67 0
-122 -68 0
-123 -69 0
-190 -67 0
-191 -68 0
-192 -69 0
-232 -67 0
-233 -68 0
-234 -69 0
-316 -67 0
-317 -68 0
-318 -69 0
-523 -67 0
-524 -68 0
-525 -69 0
-148 -70 0
-149 -71 0
-150 -72 0
-340 -70 0
-341 -71 0
-342 -72 0
-217 -73 0
-218 -74 0
-219 -75 0
-286 -73 0
-287 -74 0
-288 -75 0
-112 -76 0
-113 -77 0
-114 -78 0
-241 -76 0
-242 -77 0
-243 -78 0
-292 -76 0
-293 -77 0
-294 -78 0
-337 -76 0
-338 -77 0
-339 -78 0
-436 -76 0
-437 -77 0
-438 -78 0
-460 -76 0
-461 -77 0
-462 -78 0
-574 -76 0
-575 -77 0
-576 -78 0
-226 -79 0
-227 -80 0
-228 -81 0
-373 -79 0
-374 -80 0
-375 -81 0
-553 -79 0
-554 -80 0
-555 -81 0
-226 -82 0
-227 -83 0
-228 -84 0
-289 -82 0
-290 -83 0
-291 -84 0
-589 -82 0
-590 -83 0
-591 -84 0
-229 -85 0
-230 -86 0
-231 -87 0
-340 -85 0
-341 -86 0
-342 -87 0
-541 -85 0
-542 -86 0
-543 -87 0
-562 -85 0
-563 -86 0
-564 -87 0
-130 -88 0
-131 -89 0
-132 -90 0
-145 -88 0
-146 -89 0
-147 -90 0
-220 -88 0
-221 -89 0
-222 -90 0
-358 -88 0
-359 -89 0
-360 -90 0
-340 -91 0
-341 -92 0
-342 -93 0
-358 -91 0
-359 -92 0
-360 -93 0
-367 -91 0
-368 -92 0
-369 -93 0
-184 -94 0
-185 -95 0
-186 -96 0
-349 -94 0
-350 -95 0
-351 -96 0
-352 -94 0
-353 -95 0
-354 -96 0
-148 -97 0
-149 -98 0
-150 -99 0
-316 -97 0
-317 -98 0
-318 -99 0
-379 -97 0
-380 -98 0
-381 -99 0
-388 -97 0
-389 -98 0
-390 -99 0
-565 -97 0
-566 -98 0
-567 -99 0
-583 -97 0
-584 -98 0
-585 -99 0
-205 -100 0
-206 -101 0
-207 -102 0
-208 -100 0
-209 -101 0
-210 -102 0
-226 -100 0
-227 -101 0
-228 -102 0
-457 -100 0
-458 -101 0
-459 -102 0
-499 -100 0
-500 -101 0
-501 -102 0
-370 -103 0
-371 -104 0
-372 -105 0
-538 -103 0
-539 -104 0
-540 -105 0
-583 -103 0
-584 -104 0
-585 -105 0
-214 -106 0
-215 -107 0
-216 -108 0
-313 -106 0
-314 -107 0
-315 -108 0
-277 -109 0
-278 -110 0
-279 -111 0
-283 -109 0
-284 -110 0
-285 -111 0
-295 -109 0
-296 -110 0
-297 -111 0
-343 -109 0
-344 -110 0
-345 -111 0
-421 -109 0
-422 -110 0
-423 -111 0
-214 -112 0
-215 -113 0
-216 -114 0
-397 -112 0
-398 -113 0
-399 -114 0
-520 -112 0
-521 -113 0
-522 -114 0
-535 -112 0
-536 -113 0
-537 -114 0
-424 -115 0
-425 -116 0
-426 -117 0
-514 -115 0
-515 -116 0
-516 -117 0
-133 -118 0
-134 -119 0
-135 -120 0
-508 -118 0
-509 -119 0
-510 -120 0
-580 -118 0
-581 -119 0
-582 -120 0
-124 -121 0
-125 -122 0
-126 -123 0
-352 -121 0
-353 -122 0
-354 -123 0
-133 -124 0
-134 -125 0
-135 -126 0
-229 -124 0
-230 -125 0
-231 -126 0
-421 -124 0
-422 -125 0
-423 -126 0
-559 -124 0
-560 -125 0
-561 -126 0
-586 -124 0
-587 -125 0
-588 -126 0
-151 -127 0
-152 -128 0
-153 -129 0
-271 -127 0
-272 -128 0
-273 -129 0
-355 -127 0
-356 -128 0
-357 -129 0
-406 -127 0
-407 -128 0
-408 -129 0
-502 -127 0
-503 -128 0
-504 -129 0
-154 -130 0
-155 -131 0
-156 -132 0
-211 -130 0
-212 -131 0
-213 -132 0
-268 -130 0
-269 -131 0
-270 -132 0
-280 -130 0
-281 -131 0
-282 -132 0
-460 -130 0
-461 -131 0
-462 -132 0
-544 -130 0
-545 -131 0
-546 -132 0
-190 -133 0
-191 -134 0
-192 -135 0
-295 -133 0
-296 -134 0
-297 -135 0
-355 -133 0
-356 -134 0
-357 -135 0
-193 -136 0
-194 -137 0
-195 -138 0
-235 -136 0
-236 -137 0
-237 -138 0
-262 -136 0
-263 -137 0
-264 -138 0
-322 -136 0
-323 -137 0
-324 -138 0
-577 -136 0
-578 -137 0
-579 -138 0
-169 -139 0
-170 -140 0
-171 -141 0
-346 -139 0
-347 -140 0
-348 -141 0
-418 -139 0
-419 -140 0
-420 -141 0
-163 -142 0
-164 -143 0
-165 -144 0
-412 -142 0
-413 -143 0
-414 -144 0
-460 -142 0
-461 -143 0
-462 -144 0
-280 -145 0
-281 -146 0
-282 -147 0
-367 -145 0
-368 -146 0
-369 -147 0
-442 -145 0
-443 -146 0
-444 -147 0
-451 -145 0
-452 -146 0
-453 -147 0
-526 -145 0
-527 -146 0
-528 -147 0
-559 -145 0
-560 -146 0
-561 -147 0
-214 -148 0
-215 -149 0
-216 -150 0
-301 -148 0
-302 -149 0
-303 -150 0
-319 -148 0
-320 -149 0
-321 -150 0
-376 -148 0
-377 -149 0
-378 -150 0
-568 -148 0
-569 -149 0
-570 -150 0
-226 -151 0
-227 -152 0
-228 -153 0
-313 -151 0
-314 -152 0
-315 -153 0
-346 -151 0
-347 -152 0
-348 -153 0
-379 -151 0
-380 -152 0
-381 -153 0
-388 -151 0
-389 -152 0
-390 -153 0
-523 -151 0
-524 -152 0
-525 -153 0
-538 -151 0
-539 -152 0
-540 -153 0
-382 -154 0
-383 -155 0
-384 -156 0
-412 -154 0
-413 -155 0
-414 -156 0
-427 -154 0
-428 -155 0
-429 -156 0
-481 -154 0
-482 -155 0
-483 -156 0
-502 -154 0
-503 -155 0
-504 -156 0
-223 -157 0
-224 -158 0
-225 -159 0
-244 -160 0
-245 -161 0
-246 -162 0
-343 -160 0
-344 -161 0
-345 -162 0
-490 -160 0
-491 -161 0
-492 -162 0
-568 -160 0
-569 -161 0
-570 -162 0
-589 -160 0
-590 -161 0
-591 -162 0
-325 -163 0
-326 -164 0
-327 -165 0
-349 -163 0
-350 -164 0
-351 -165 0
-433 -163 0
-434 -164 0
-435 -165 0
-430 -166 0
-431 -167 0
-432 -168 0
-529 -166 0
-530 -167 0
-531 -168 0
-193 -169 0
-194 -170 0
-195 -171 0
-292 -169 0
-293 -170 0
-294 -171 0
-394 -169 0
-395 -170 0
-396 -171 0
-397 -169 0
-398 -170 0
-399 -171 0
-355 -172 0
-356 -173 0
-357 -174 0
-370 -172 0
-371 -173 0
-372 -174 0
-406 -172 0
-407 -173 0
-408 -174 0
-442 -172 0
-443 -173 0
-444 -174 0
-499 -172 0
-500 -173 0
-501 -174 0
-409 -175 0
-410 -176 0
-411 -177 0
-355 -178 0
-356 -179 0
-357 -180 0
-223 -181 0
-224 -182 0
-225 -183 0
-346 -181 0
-347 -182 0
-348 -183 0
-382 -181 0
-383 -182 0
-384 -183 0
-394 -181 0
-395 -182 0
-396 -183 0
-508 -181 0
-509 -182 0
-510 -183 0
-229 -184 0
-230 -185 0
-231 -186 0
-319 -184 0
-320 -185 0
-321 -186 0
-367 -184 0
-368 -185 0
-369 -186 0
-484 -184 0
-485 -185 0
-486 -186 0
-193 -187 0
-194 -188 0
-195 -189 0
-238 -187 0
-239 -188 0
-240 -189 0
-241 -187 0
-242 -188 0
-243 -189 0
-439 -187 0
-440 -188 0
-441 -189 0
-220 -190 0
-221 -191 0
-222 -192 0
-202 -193 0
-203 -194 0
-204 -195 0
-307 -193 0
-308 -194 0
-309 -195 0
-334 -193 0
-335 -194 0
-336 -195 0
-421 -193 0
-422 -194 0
-423 -195 0
-550 -193 0
-551 -194 0
-552 -195 0
-352 -196 0
-353 -197 0
-354 -198 0
-226 -199 0
-227 -200 0
-228 -201 0
-292 -199 0
-293 -200 0
-294 -201 0
-508 -199 0
-509 -200 0
-510 -201 0
-538 -199 0
-539 -200 0
-540 -201 0
-550 -199 0
-551 -200 0
-552 -201 0
-580 -199 0
-581 -200 0
-582 -201 0
-286 -202 0
-287 -203 0
-288 -204 0
-304 -202 0
-305 -203 0
-306 -204 0
-298 -205 0
-299 -206 0
-300 -207 0
-319 -205 0
-320 -206 0
-321 -207 0
-376 -205 0
-377 -206 0
-378 -207 0
-454 -205 0
-455 -206 0
-456 -207 0
-532 -205 0
-533 -206 0
-534 -207 0
-592 -205 0
-593 -206 0
-594 -207 0
-247 -208 0
-248 -209 0
-249 -210 0
-331 -208 0
-332 -209 0
-333 -210 0
-364 -208 0
-365 -209 0
-366 -210 0
-394 -208 0
-395 -209 0
-396 -210 0
-493 -208 0
-494 -209 0
-495 -210 0
-250 -211 0
-251 -212 0
-252 -213 0
-274 -211 0
-275 -212 0
-276 -213 0
-319 -211 0
-320 -212 0
-321 -213 0
-571 -211 0
-572 -212 0
-573 -213 0
-574 -211 0
-575 -212 0
-576 -213 0
-403 -214 0
-404 -215 0
-405 -216 0
-472 -214 0
-473 -215 0
-474 -216 0
-298 -217 0
-299 -218 0
-300 -219 0
-484 -217 0
-485 -218 0
-486 -219 0
-514 -217 0
-515 -218 0
-516 -219 0
-541 -217 0
-542 -218 0
-543 -219 0
-520 -220 0
-521 -221 0
-522 -222 0
-550 -220 0
-551 -221 0
-552 -222 0
-334 -223 0
-335 -224 0
-336 -225 0
-463 -223 0
-464 -224 0
-465 -225 0
-493 -223 0
-494 -224 0
-495 -225 0
-562 -223 0
-563 -224 0
-564 -225 0
-589 -223 0
-590 -224 0
-591 -225 0
-424 -226 0
-425 -227 0
-426 -228 0
-328 -229 0
-329 -230 0
-330 -231 0
-595 -229 0
-596 -230 0
-597 -231 0
-331 -232 0
-332 -233 0
-333 -234 0
-505 -232 0
-506 -233 0
-507 -234 0
-244 -235 0
-245 -236 0
-246 -237 0
-268 -235 0
-269 -236 0
-270 -237 0
-343 -235 0
-344 -236 0
-345 -237 0
-283 -238 0
-284 -239 0
-285 -240 0
-313 -238 0
-314 -239 0
-315 -240 0
-358 -238 0
-359 -239 0
-360 -240 0
-463 -241 0
-464 -242 0
-465 -243 0
-490 -241 0
-491 -242 0
-492 -243 0
-559 -241 0
-560 -242 0
-561 -243 0
-268 -244 0
-269 -245 0
-270 -246 0
-376 -244 0
-377 -245 0
-378 -246 0
-466 -244 0
-467 -245 0
-468 -246 0
-289 -247 0
-290 -248 0
-291 -249 0
-298 -250 0
-299 -251 0
-300 -252 0
-496 -250 0
-497 -251 0
-498 -252 0
-517 -250 0
-518 -251 0
-519 -252 0
-544 -250 0
-545 -251 0
-546 -252 0
-268 -253 0
-269 -254 0
-270 -255 0
-301 -253 0
-302 -254 0
-303 -255 0
-322 -253 0
-323 -254 0
-324 -255 0
-520 -253 0
-521 -254 0
-522 -255 0
-259 -256 0
-260 -257 0
-261 -258 0
-496 -256 0
-497 -257 0
-498 -258 0
-412 -259 0
-413 -260 0
-414 -261 0
-475 -259 0
-476 -260 0
-477 -261 0
-499 -259 0
-500 -260 0
-501 -261 0
-580 -259 0
-581 -260 0
-582 -261 0
-427 -262 0
-428 -263 0
-429 -264 0
-484 -262 0
-485 -263 0
-486 -264 0
-556 -262 0
-557 -263 0
-558 -264 0
-307 -265 0
-308 -266 0
-309 -267 0
-475 -265 0
-476 -266 0
-477 -267 0
-496 -265 0
-497 -266 0
-498 -267 0
-541 -265 0
-542 -266 0
-543 -267 0
-586 -265 0
-587 -266 0
-588 -267 0
-409 -268 0
-410 -269 0
-411 -270 0
-535 -268 0
-536 -269 0
-537 -270 0
-316 -271 0
-317 -272 0
-318 -273 0
-337 -271 0
-338 -272 0
-339 -273 0
-358 -271 0
-359 -272 0
-360 -273 0
-379 -271 0
-380 -272 0
-381 -273 0
-478 -271 0
-479 -272 0
-480 -273 0
-304 -274 0
-305 -275 0
-306 -276 0
-406 -274 0
-407 -275 0
-408 -276 0
-475 -274 0
-476 -275 0
-477 -276 0
-319 -277 0
-320 -278 0
-321 -279 0
-391 -277 0
-392 -278 0
-393 -279 0
-460 -277 0
-461 -278 0
-462 -279 0
-376 -280 0
-377 -281 0
-378 -282 0
-454 -280 0
-455 -281 0
-456 -282 0
-514 -280 0
-515 -281 0
-516 -282 0
-337 -283 0
-338 -284 0
-339 -285 0
-385 -283 0
-386 -284 0
-387 -285 0
-427 -283 0
-428 -284 0
-429 -285 0
-466 -283 0
-467 -284 0
-468 -285 0
-298 -289 0
-299 -290 0
-300 -291 0
-373 -292 0
-374 -293 0
-375 -294 0
-400 -295 0
-401 -296 0
-402 -297 0
-502 -295 0
-503 -296 0
-504 -297 0
-586 -295 0
-587 -296 0
-588 -297 0
-529 -298 0
-530 -299 0
-531 -300 0
-457 -301 0
-458 -302 0
-459 -303 0
-589 -301 0
-590 -302 0
-591 -303 0
-307 -304 0
-308 -305 0
-309 -306 0
-373 -304 0
-374 -305 0
-375 -306 0
-571 -304 0
-572 -305 0
-573 -306 0
-562 -307 0
-563 -308 0
-564 -309 0
-415 -310 0
-416 -311 0
-417 -312 0
-430 -310 0
-431 -311 0
-432 -312 0
-526 -310 0
-527 -311 0
-528 -312 0
-337 -316 0
-338 -317 0
-339 -318 0
-550 -316 0
-551 -317 0
-552 -318 0
-361 -319 0
-362 -320 0
-363 -321 0
-418 -319 0
-419 -320 0
-420 -321 0
-361 -322 0
-362 -323 0
-363 -324 0
-451 -322 0
-452 -323 0
-453 -324 0
-505 -322 0
-506 -323 0
-507 -324 0
-439 -325 0
-440 -326 0
-441 -327 0
-451 -325 0
-452 -326 0
-453 -327 0
-505 -328 0
-506 -329 0
-507 -330 0
-550 -328 0
-551 -329 0
-552 -330 0
-349 -331 0
-350 -332 0
-351 -333 0
-385 -331 0
-386 -332 0
-387 -333 0
-523 -331 0
-524 -332 0
-525 -333 0
-541 -331 0
-542 -332 0
-543 -333 0
-352 -334 0
-353 -335 0
-354 -336 0
-460 -334 0
-461 -335 0
-462 -336 0
-598 -334 0
-599 -335 0
-600 -336 0
-397 -337 0
-398 -338 0
-399 -339 0
-475 -337 0
-476 -338 0
-477 -339 0
-505 -337 0
-506 -338 0
-507 -339 0
-514 -337 0
-515 -338 0
-516 -339 0
-493 -340 0
-494 -341 0
-495 -342 0
-433 -343 0
-434 -344 0
-435 -345 0
-478 -343 0
-479 -344 0
-480 -345 0
-562 -343 0
-563 -344 0
-564 -345 0
-397 -346 0
-398 -347 0
-399 -348 0
-409 -346 0
-410 -347 0
-411 -348 0
-379 -349 0
-380 -350 0
-381 -351 0
-388 -349 0
-389 -350 0
-390 -351 0
-562 -349 0
-563 -350 0
-564 -351 0
-556 -352 0
-557 -353 0
-558 -354 0
-400 -355 0
-401 -356 0
-402 -357 0
-403 -355 0
-404 -356 0
-405 -357 0
-598 -355 0
-599 -356 0
-600 -357 0
-445 -358 0
-446 -359 0
-447 -360 0
-415 -361 0
-416 -362 0
-417 -363 0
-484 -361 0
-485 -362 0
-486 -363 0
-517 -361 0
-518 -362 0
-519 -363 0
-550 -361 0
-551 -362 0
-552 -363 0
-436 -364 0
-437 -365 0
-438 -366 0
-475 -364 0
-476 -365 0
-477 -366 0
-532 -364 0
-533 -365 0
-534 -366 0
-436 -367 0
-437 -368 0
-438 -369 0
-451 -367 0
-452 -368 0
-453 -369 0
-484 -367 0
-485 -368 0
-486 -369 0
-496 -367 0
-497 -368 0
-498 -369 0
-580 -370 0
-581 -371 0
-582 -372 0
-394 -373 0
-395 -374 0
-396 -375 0
-409 -373 0
-410 -374 0
-411 -375 0
-412 -373 0
-413 -374 0
-414 -375 0
-532 -373 0
-533 -374 0
-534 -375 0
-583 -373 0
-584 -374 0
-585 -375 0
-427 -379 0
-428 -380 0
-429 -381 0
-424 -382 0
-425 -383 0
-426 -384 0
-493 -382 0
-494 -383 0
-495 -384 0
-388 -385 0
-389 -386 0
-390 -387 0
-523 -388 0
-524 -389 0
-525 -390 0
-427 -391 0
-428 -392 0
-429 -393 0
-403 -394 0
-404 -395 0
-405 -396 0
-433 -394 0
-434 -395 0
-435 -396 0
-457 -394 0
-458 -395 0
-459 -396 0
-517 -397 0
-518 -398 0
-519 -399 0
-556 -397 0
-557 -398 0
-558 -399 0
-439 -403 0
-440 -404 0
-441 -405 0
-523 -406 0
-524 -407 0
-525 -408 0
-580 -406 0
-581 -407 0
-582 -408 0
-475 -412 0
-476 -413 0
-477 -414 0
-493 -412 0
-494 -413 0
-495 -414 0
-445 -415 0
-446 -416 0
-447 -417 0
-571 -415 0
-572 -416 0
-573 -417 0
-550 -418 0
-551 -419 0
-552 -420 0
-559 -418 0
-560 -419 0
-561 -420 0
-460 -421 0
-461 -422 0
-462 -423 0
-430 -424 0
-431 -425 0
-432 -426 0
-547 -427 0
-548 -428 0
-549 -429 0
-586 -427 0
-587 -428 0
-588 -429 0
-547 -433 0
-548 -434 0
-549 -435 0
-553 -433 0
-554 -434 0
-555 -435 0
-571 -436 0
-572 -437 0
-573 -438 0
-490 -439 0
-491 -440 0
-492 -441 0
-478 -448 0
-479 -449 0
-480 -450 0
-568 -448 0
-569 -449 0
-570 -450 0
-547 -454 0
-548 -455 0
-549 -456 0
-469 -463 0
-470 -464 0
-471 -465 0
-577 -472 0
-578 -473 0
-579 -474 0
-598 -475 0
-599 -476 0
-600 -477 0
-517 -478 0
-518 -479 0
-519 -480 0
-562 -478 0
-563 -479 0
-564 -480 0
-574 -481 0
-575 -482 0
-576 -483 0
-499 -487 0
-500 -488 0
-501 -489 0
-502 -493 0
-503 -494 0
-504 -495 0
-592 -493 0
-593 -494 0
-594 -495 0
-556 -532 0
-557 -533 0
-558 -534 0
-553 -538 0
-554 -539 0
-555 -540 0
-562 -547 0
-563 -548 0
-564 -549 0
-586 -559 0
-587 -560 0
-588 -561 0
-571 -565 0
-572 -566 0
-573 -567 0
-598 -568 0
-599 -569 0
-600 -570 0
-589 -577 0
-590 -578 0
-591 -579 0
